decision_x1=[0,4];
decision_x2=[0,4];
decision_x3=[0,4];
decision_x4=[0,4];
decision_x5=[0,4];
decision_x6=[0,4];
decision_x7=[0,4];
decision_x8=[0,4];
decision_x9=[0,4];
decision_x10=[0,4];
decision_x11=[0,4];
decision_x12=[0,4];
decision_x13=[0,4];
decision_x14=[0,4];
random_y1=[0,4];
random_y2=[0,4];
random_y3=[0,4];
random_y4=[0,4];
random_y5=[0,4];
random_y6=[0,4];
random_y7=[0,4];
constraint_x2_x1=[
0,1,0.57|
0,2,3.9|
0,3,1.9|
0,4,5.6|
1,0,7.8|
1,2,8.2|
1,3,6.6|
1,4,0.23|
2,0,2.1|
2,1,8.5|
2,3,9.5|
2,4,4.3|
3,0,3.2|
3,1,8|
3,2,9.6|
3,4,3.8|
4,0,0.62|
4,1,1.2|
4,2,2|
4,3,1.3|
];
constraint_x4_x2=[
0,1,4.7|
0,2,7.1|
0,3,6.8|
0,4,7.3|
1,0,5.6|
1,2,8|
1,3,1.4|
1,4,8.9|
2,0,9.8|
2,1,9.6|
2,3,3.3|
2,4,6.2|
3,0,8.9|
3,1,4.6|
3,2,7.3|
3,4,9.4|
4,0,2.7|
4,1,4|
4,2,8.7|
4,3,6.9|
];
constraint_x4_x3=[
0,1,0.68|
0,2,4.1|
0,3,1.1|
0,4,3.1|
1,0,1.2|
1,2,2.5|
1,3,0.17|
1,4,7.3|
2,0,2.4|
2,1,1.4|
2,3,2.1|
2,4,2.8|
3,0,6.4|
3,1,2|
3,2,7.7|
3,4,5.5|
4,0,3|
4,1,6.2|
4,2,2.7|
4,3,6.9|
];
constraint_x5_x2=[
0,1,5.1|
0,2,7.7|
0,3,5.9|
0,4,3.9|
1,0,4.9|
1,2,2.4|
1,3,9.5|
1,4,3.9|
2,0,3.2|
2,1,2.1|
2,3,4.9|
2,4,0.56|
3,0,1.2|
3,1,1.9|
3,2,0.73|
3,4,3.1|
4,0,3.3|
4,1,7.4|
4,2,10|
4,3,4.9|
];
constraint_x5_x3=[
0,1,0.38|
0,2,9.3|
0,3,3.7|
0,4,5.6|
1,0,2|
1,2,7.2|
1,3,1.5|
1,4,4.5|
2,0,0.79|
2,1,3.8|
2,3,9|
2,4,7.3|
3,0,2.8|
3,1,9.2|
3,2,4.8|
3,4,0.53|
4,0,7.2|
4,1,4.6|
4,2,3.3|
4,3,8|
];
constraint_x5_x4=[
0,1,7.8|
0,2,7.2|
0,3,8.4|
0,4,7.6|
1,0,0.98|
1,2,3.9|
1,3,3.5|
1,4,5.9|
2,0,9|
2,1,9.4|
2,3,9.6|
2,4,9.1|
3,0,5.8|
3,1,1.6|
3,2,7.1|
3,4,3.7|
4,0,7.9|
4,1,7.4|
4,2,6.9|
4,3,3.8|
];
constraint_x6_x1=[
0,1,4.2|
0,2,9.1|
0,3,0.74|
0,4,9.2|
1,0,6.8|
1,2,2.9|
1,3,9.1|
1,4,7.6|
2,0,6.8|
2,1,0.47|
2,3,3.5|
2,4,3.4|
3,0,3.4|
3,1,1.5|
3,2,6.7|
3,4,1.7|
4,0,9.6|
4,1,8.2|
4,2,6.8|
4,3,6.6|
];
constraint_x6_x3=[
0,1,9.9|
0,2,1.7|
0,3,9.9|
0,4,8.2|
1,0,1.6|
1,2,9.3|
1,3,4.1|
1,4,5.7|
2,0,10|
2,1,1.5|
2,3,3.6|
2,4,9.5|
3,0,5.3|
3,1,8.7|
3,2,9.8|
3,4,7.7|
4,0,9.2|
4,1,8.5|
4,2,3.1|
4,3,1.4|
];
constraint_x6_x5=[
0,1,0.58|
0,2,8.9|
0,3,8.7|
0,4,0.49|
1,0,8.7|
1,2,5.2|
1,3,8.9|
1,4,7.6|
2,0,8.9|
2,1,9.2|
2,3,8.5|
2,4,1.5|
3,0,9.1|
3,1,6.3|
3,2,3.7|
3,4,3.6|
4,0,5|
4,1,9.5|
4,2,8.3|
4,3,3.5|
];
constraint_x7_x1=[
0,1,0.89|
0,2,7.1|
0,3,8.4|
0,4,7.5|
1,0,4|
1,2,1.5|
1,3,5.8|
1,4,7.9|
2,0,9.1|
2,1,2.3|
2,3,2.8|
2,4,9.4|
3,0,5.7|
3,1,6.6|
3,2,4.2|
3,4,5.1|
4,0,8.7|
4,1,6.5|
4,2,9.3|
4,3,4.9|
];
constraint_x7_x4=[
0,1,3.8|
0,2,2.5|
0,3,2.1|
0,4,1.5|
1,0,6.3|
1,2,4.8|
1,3,0.29|
1,4,4|
2,0,0.98|
2,1,8.2|
2,3,1.7|
2,4,8.9|
3,0,4.1|
3,1,7.1|
3,2,9.6|
3,4,6.5|
4,0,9.5|
4,1,2.3|
4,2,5.3|
4,3,4.3|
];
constraint_x7_x6=[
0,1,9.5|
0,2,1.6|
0,3,9.7|
0,4,8|
1,0,2.1|
1,2,5.3|
1,3,3.4|
1,4,6.4|
2,0,9.5|
2,1,4.6|
2,3,2.9|
2,4,7.4|
3,0,7.9|
3,1,1.8|
3,2,8.5|
3,4,4|
4,0,4.1|
4,1,9.2|
4,2,0.056|
4,3,9.1|
];
constraint_x8_x2=[
0,1,0.87|
0,2,9.8|
0,3,8.9|
0,4,6.6|
1,0,1.1|
1,2,3.6|
1,3,8.2|
1,4,4.4|
2,0,7|
2,1,2.8|
2,3,4.9|
2,4,0.29|
3,0,2.7|
3,1,0.61|
3,2,3.4|
3,4,6.3|
4,0,7.1|
4,1,9.3|
4,2,4.9|
4,3,1.8|
];
constraint_x8_x4=[
0,1,2.9|
0,2,2.8|
0,3,7|
0,4,7.9|
1,0,6.9|
1,2,4.1|
1,3,3.6|
1,4,5.4|
2,0,7.1|
2,1,3.1|
2,3,7.9|
2,4,3.4|
3,0,0.38|
3,1,2.4|
3,2,1.1|
3,4,6.7|
4,0,7.1|
4,1,7.7|
4,2,5.8|
4,3,5.6|
];
constraint_x8_x6=[
0,1,8.6|
0,2,3.6|
0,3,6.3|
0,4,2.6|
1,0,6|
1,2,1.6|
1,3,9.5|
1,4,3|
2,0,0.87|
2,1,7.5|
2,3,9.5|
2,4,5.4|
3,0,6.1|
3,1,7.8|
3,2,5.1|
3,4,6.3|
4,0,4.7|
4,1,1.8|
4,2,1.6|
4,3,7.3|
];
constraint_x8_x7=[
0,1,7.8|
0,2,8.1|
0,3,4.2|
0,4,6.3|
1,0,2.3|
1,2,9.1|
1,3,6.1|
1,4,5|
2,0,5.1|
2,1,9.3|
2,3,4.6|
2,4,3.8|
3,0,6.4|
3,1,4.6|
3,2,9.8|
3,4,9.3|
4,0,6.5|
4,1,4.5|
4,2,8.6|
4,3,8.1|
];
constraint_x9_x4=[
0,1,8.7|
0,2,0.098|
0,3,7.7|
0,4,6.9|
1,0,8.7|
1,2,1.2|
1,3,0.28|
1,4,1.4|
2,0,7.7|
2,1,7.9|
2,3,7.1|
2,4,2.4|
3,0,9.5|
3,1,10|
3,2,6.1|
3,4,0.18|
4,0,9|
4,1,0.79|
4,2,8.8|
4,3,6.3|
];
constraint_x9_x6=[
0,1,0.52|
0,2,6.4|
0,3,3.6|
0,4,0.27|
1,0,2.1|
1,2,2.8|
1,3,1.8|
1,4,7.4|
2,0,1.4|
2,1,6.2|
2,3,5.4|
2,4,4.3|
3,0,1.5|
3,1,6.9|
3,2,5.9|
3,4,5.2|
4,0,6.5|
4,1,5.8|
4,2,5.4|
4,3,5|
];
constraint_x9_x8=[
0,1,1.7|
0,2,3.9|
0,3,8.2|
0,4,0.33|
1,0,9.7|
1,2,7.6|
1,3,3.5|
1,4,6.1|
2,0,4.2|
2,1,0.33|
2,3,5|
2,4,6.8|
3,0,7.7|
3,1,9|
3,2,6.2|
3,4,1.2|
4,0,9.9|
4,1,6|
4,2,9.7|
4,3,7.1|
];
constraint_x10_x2=[
0,1,8.5|
0,2,0.61|
0,3,7.9|
0,4,4.5|
1,0,4.5|
1,2,4.4|
1,3,8.4|
1,4,4.1|
2,0,1.5|
2,1,1.8|
2,3,5|
2,4,2.4|
3,0,7.1|
3,1,2.6|
3,2,6.7|
3,4,6.8|
4,0,8.1|
4,1,3.7|
4,2,5.4|
4,3,8.3|
];
constraint_x10_x4=[
0,1,1.7|
0,2,7.3|
0,3,6.7|
0,4,7.6|
1,0,7.5|
1,2,6.6|
1,3,1.1|
1,4,5.3|
2,0,7.4|
2,1,8.5|
2,3,0.38|
2,4,1.6|
3,0,3.4|
3,1,7.8|
3,2,1.4|
3,4,9.8|
4,0,7.7|
4,1,4.1|
4,2,3|
4,3,7.9|
];
constraint_x10_x5=[
0,1,0.48|
0,2,2.5|
0,3,8.2|
0,4,7.6|
1,0,9|
1,2,0.73|
1,3,4.9|
1,4,8.1|
2,0,0.94|
2,1,3.1|
2,3,1.9|
2,4,4.6|
3,0,5.2|
3,1,2.2|
3,2,7.5|
3,4,4.7|
4,0,0.36|
4,1,6.8|
4,2,1.6|
4,3,4.3|
];
constraint_x10_x6=[
0,1,7.6|
0,2,3.6|
0,3,7.5|
0,4,4.5|
1,0,2.9|
1,2,2.4|
1,3,9.4|
1,4,5.8|
2,0,7.1|
2,1,9.1|
2,3,2.8|
2,4,5.2|
3,0,0.29|
3,1,0.38|
3,2,0.023|
3,4,7.2|
4,0,4.3|
4,1,4.5|
4,2,4|
4,3,2.2|
];
constraint_x10_x7=[
0,1,10|
0,2,8.2|
0,3,5.8|
0,4,5.5|
1,0,3.5|
1,2,3.3|
1,3,9.1|
1,4,3.6|
2,0,3.3|
2,1,5|
2,3,2.1|
2,4,2.9|
3,0,3.7|
3,1,10|
3,2,5.2|
3,4,4.4|
4,0,3.2|
4,1,4.4|
4,2,9.5|
4,3,7.7|
];
constraint_x10_x9=[
0,1,3.5|
0,2,6.5|
0,3,1.5|
0,4,2.9|
1,0,8.5|
1,2,8.9|
1,3,3.7|
1,4,2.7|
2,0,4|
2,1,1.6|
2,3,9.3|
2,4,4.6|
3,0,0.94|
3,1,4.3|
3,2,6.9|
3,4,1.2|
4,0,9.5|
4,1,1.2|
4,2,2.9|
4,3,9.8|
];
constraint_x11_x2=[
0,1,0.34|
0,2,1.4|
0,3,3.6|
0,4,8.8|
1,0,8.7|
1,2,2.4|
1,3,1.4|
1,4,5.8|
2,0,6.5|
2,1,2.5|
2,3,0.67|
2,4,2.9|
3,0,0.82|
3,1,2.3|
3,2,6|
3,4,4.7|
4,0,0.9|
4,1,4.5|
4,2,0.35|
4,3,5.1|
];
constraint_x11_x4=[
0,1,2.8|
0,2,4.9|
0,3,0.5|
0,4,1.5|
1,0,1.1|
1,2,5.7|
1,3,6.4|
1,4,3.1|
2,0,7.3|
2,1,3.5|
2,3,7.2|
2,4,6.4|
3,0,3.7|
3,1,0.75|
3,2,9.7|
3,4,8.3|
4,0,6.7|
4,1,3.5|
4,2,0.13|
4,3,9|
];
constraint_x11_x5=[
0,1,3.3|
0,2,2.5|
0,3,2.1|
0,4,8.2|
1,0,8.5|
1,2,2.9|
1,3,10|
1,4,2.7|
2,0,2.8|
2,1,1.9|
2,3,9.6|
2,4,2.4|
3,0,7|
3,1,1.3|
3,2,6.3|
3,4,6.6|
4,0,8|
4,1,8.3|
4,2,10|
4,3,6.2|
];
constraint_x11_x6=[
0,1,9.1|
0,2,8.3|
0,3,6.2|
0,4,9.1|
1,0,0.77|
1,2,7.9|
1,3,7.3|
1,4,3.2|
2,0,4.8|
2,1,4.4|
2,3,0.63|
2,4,5.9|
3,0,4.3|
3,1,1.8|
3,2,6|
3,4,9.1|
4,0,6.2|
4,1,5.4|
4,2,7.5|
4,3,8.3|
];
constraint_x11_x7=[
0,1,0.35|
0,2,2.8|
0,3,9.8|
0,4,3.9|
1,0,4.5|
1,2,3.9|
1,3,2|
1,4,5.7|
2,0,5.1|
2,1,2.1|
2,3,6.8|
2,4,2.2|
3,0,0.14|
3,1,8.2|
3,2,2.4|
3,4,9.9|
4,0,9.9|
4,1,4.2|
4,2,1.4|
4,3,5.2|
];
constraint_x11_x9=[
0,1,1.7|
0,2,3.7|
0,3,9.7|
0,4,3.2|
1,0,8.5|
1,2,5.9|
1,3,0.044|
1,4,8.5|
2,0,4.3|
2,1,7.1|
2,3,2.1|
2,4,1.8|
3,0,1.2|
3,1,3.9|
3,2,2.8|
3,4,1.3|
4,0,5.5|
4,1,7.1|
4,2,9.7|
4,3,3.6|
];
constraint_x12_x1=[
0,1,7.3|
0,2,2.1|
0,3,3.9|
0,4,7.9|
1,0,0.33|
1,2,4.1|
1,3,5.5|
1,4,3.5|
2,0,5.2|
2,1,4.7|
2,3,6.4|
2,4,3.6|
3,0,3.1|
3,1,5.5|
3,2,7.6|
3,4,4.4|
4,0,9.4|
4,1,2.4|
4,2,7.6|
4,3,0.042|
];
constraint_x12_x2=[
0,1,9.7|
0,2,0.43|
0,3,8.4|
0,4,4.9|
1,0,2|
1,2,5|
1,3,7.4|
1,4,1.9|
2,0,0.17|
2,1,7.3|
2,3,6.2|
2,4,6.3|
3,0,5.9|
3,1,7.9|
3,2,8.7|
3,4,9.7|
4,0,9.3|
4,1,2.3|
4,2,9.8|
4,3,7.3|
];
constraint_x12_x6=[
0,1,7.6|
0,2,0.92|
0,3,7.3|
0,4,3.8|
1,0,7.3|
1,2,7.2|
1,3,9.9|
1,4,3.9|
2,0,9.6|
2,1,8.6|
2,3,3.6|
2,4,5.7|
3,0,6.2|
3,1,7.4|
3,2,4.2|
3,4,7.1|
4,0,9.9|
4,1,1.1|
4,2,5.4|
4,3,2|
];
constraint_x12_x7=[
0,1,4.8|
0,2,2.2|
0,3,9.7|
0,4,0.43|
1,0,9.9|
1,2,5.2|
1,3,7.9|
1,4,5.7|
2,0,7.6|
2,1,9|
2,3,3.7|
2,4,5.6|
3,0,3.5|
3,1,6.9|
3,2,3.5|
3,4,5.2|
4,0,3.5|
4,1,2.1|
4,2,4|
4,3,7.8|
];
constraint_x12_x8=[
0,1,5.3|
0,2,5.3|
0,3,2.2|
0,4,6.8|
1,0,3.3|
1,2,2.3|
1,3,6.2|
1,4,5.6|
2,0,0.98|
2,1,7.8|
2,3,7.1|
2,4,7.1|
3,0,4.2|
3,1,7.2|
3,2,0.28|
3,4,0.79|
4,0,6.1|
4,1,9.6|
4,2,6.8|
4,3,9.1|
];
constraint_x12_x11=[
0,1,9.8|
0,2,2.4|
0,3,4.7|
0,4,0.38|
1,0,3.6|
1,2,6.7|
1,3,7.9|
1,4,8.6|
2,0,9.3|
2,1,7|
2,3,0.7|
2,4,7.8|
3,0,8|
3,1,6.9|
3,2,5.1|
3,4,8.9|
4,0,8.4|
4,1,1.9|
4,2,1.3|
4,3,9.8|
];
constraint_x13_x3=[
0,1,3.1|
0,2,7|
0,3,1.9|
0,4,1.9|
1,0,8.9|
1,2,1.7|
1,3,7.6|
1,4,4.2|
2,0,1|
2,1,4.1|
2,3,2|
2,4,8.3|
3,0,5.8|
3,1,9|
3,2,0.36|
3,4,7.4|
4,0,8.5|
4,1,1.3|
4,2,2.9|
4,3,4.5|
];
constraint_x13_x6=[
0,1,3.4|
0,2,5.5|
0,3,3.1|
0,4,9.9|
1,0,6.1|
1,2,9.8|
1,3,9.2|
1,4,4.4|
2,0,5.3|
2,1,3.3|
2,3,8.2|
2,4,4.6|
3,0,6.2|
3,1,8.8|
3,2,4.4|
3,4,4.7|
4,0,4.5|
4,1,2.9|
4,2,6.4|
4,3,6.4|
];
constraint_x13_x7=[
0,1,1.4|
0,2,6.9|
0,3,1.1|
0,4,5.9|
1,0,2.6|
1,2,1.2|
1,3,1.6|
1,4,8.4|
2,0,4.8|
2,1,7.7|
2,3,1.3|
2,4,3.1|
3,0,5.4|
3,1,2.1|
3,2,8.2|
3,4,1.7|
4,0,7.6|
4,1,5.2|
4,2,2.8|
4,3,4.9|
];
constraint_x13_x12=[
0,1,6.9|
0,2,8.3|
0,3,3.9|
0,4,5.2|
1,0,5.1|
1,2,4.7|
1,3,3.4|
1,4,1.1|
2,0,8.6|
2,1,9.2|
2,3,3.1|
2,4,8.9|
3,0,8.5|
3,1,8.3|
3,2,5|
3,4,3.7|
4,0,2.6|
4,1,3.9|
4,2,6.2|
4,3,0.83|
];
constraint_x14_x4=[
0,1,5.1|
0,2,5.5|
0,3,1.9|
0,4,3|
1,0,6.3|
1,2,3.1|
1,3,1.4|
1,4,0.083|
2,0,0.44|
2,1,3.1|
2,3,7.7|
2,4,5.9|
3,0,9.1|
3,1,3.5|
3,2,7.9|
3,4,3.3|
4,0,4.1|
4,1,5.3|
4,2,5.2|
4,3,4.3|
];
constraint_x14_x5=[
0,1,2.6|
0,2,8|
0,3,6.5|
0,4,0.67|
1,0,6.5|
1,2,0.33|
1,3,4.5|
1,4,1.7|
2,0,3.4|
2,1,5.1|
2,3,2.9|
2,4,4.3|
3,0,7.1|
3,1,1.6|
3,2,7.6|
3,4,8.8|
4,0,0.41|
4,1,1.2|
4,2,6.3|
4,3,4.4|
];
constraint_x14_x7=[
0,1,6.7|
0,2,1.8|
0,3,8.1|
0,4,3.1|
1,0,4.7|
1,2,0.56|
1,3,4.7|
1,4,1.4|
2,0,8.5|
2,1,4.4|
2,3,4.5|
2,4,4.4|
3,0,2.5|
3,1,1.5|
3,2,9.2|
3,4,5.3|
4,0,4.4|
4,1,2.9|
4,2,7.1|
4,3,4.5|
];
constraint_x14_x9=[
0,1,4.3|
0,2,5.2|
0,3,1.5|
0,4,1.4|
1,0,9.5|
1,2,3.2|
1,3,4.4|
1,4,0.057|
2,0,3.2|
2,1,4.7|
2,3,8.3|
2,4,1.4|
3,0,3.1|
3,1,3.9|
3,2,3.9|
3,4,8.1|
4,0,6.3|
4,1,7.1|
4,2,0.17|
4,3,1.8|
];
constraint_x14_x13=[
0,1,2.3|
0,2,8.4|
0,3,8.8|
0,4,1.7|
1,0,4.1|
1,2,8.7|
1,3,9.5|
1,4,8.7|
2,0,1.9|
2,1,3.4|
2,3,9.1|
2,4,8.7|
3,0,0.2|
3,1,6.9|
3,2,8.4|
3,4,6.1|
4,0,5.7|
4,1,4.7|
4,2,3.7|
4,3,9|
];
constraint_x1_y1=[
0,0,8.6|
0,1,3.1|
0,2,9.4|
0,3,2.9|
0,4,7.6|
1,0,2.8|
1,1,4.4|
1,2,6|
1,3,3.3|
1,4,6.2|
2,0,2.9|
2,1,4.2|
2,2,7.6|
2,3,3.3|
2,4,3.5|
3,0,6.3|
3,1,7.1|
3,2,8.1|
3,3,5.5|
3,4,2.4|
4,0,8.9|
4,1,1.7|
4,2,9.6|
4,3,4.6|
4,4,0.83|
];
constraint_x2_y2=[
0,0,3.7|
0,1,7.5|
0,2,5.4|
0,3,0.73|
0,4,2.6|
1,0,6.6|
1,1,1.9|
1,2,3.7|
1,3,7.6|
1,4,5.6|
2,0,3.2|
2,1,1.9|
2,2,6.1|
2,3,9.5|
2,4,8.2|
3,0,0.15|
3,1,3.2|
3,2,4.9|
3,3,1.1|
3,4,7.1|
4,0,7.7|
4,1,9.7|
4,2,1.7|
4,3,6.9|
4,4,5.6|
];
constraint_x3_y3=[
0,0,0.69|
0,1,7.4|
0,2,0.53|
0,3,1.7|
0,4,2.7|
1,0,5.2|
1,1,4.4|
1,2,9.1|
1,3,5|
1,4,6.9|
2,0,0.012|
2,1,0.25|
2,2,9.1|
2,3,1.9|
2,4,4.1|
3,0,4.6|
3,1,0.81|
3,2,0.49|
3,3,8.4|
3,4,1.8|
4,0,5.8|
4,1,9.3|
4,2,7.9|
4,3,8.2|
4,4,1.4|
];
constraint_x4_y4=[
0,0,0.37|
0,1,0.92|
0,2,2.7|
0,3,1.5|
0,4,5.3|
1,0,2.2|
1,1,8.6|
1,2,9.5|
1,3,4.1|
1,4,2.4|
2,0,3.5|
2,1,8.7|
2,2,0.6|
2,3,9.1|
2,4,7.5|
3,0,3.2|
3,1,4.9|
3,2,9.7|
3,3,5.7|
3,4,6.1|
4,0,4.3|
4,1,8.4|
4,2,5.4|
4,3,4.4|
4,4,2.6|
];
constraint_x5_y5=[
0,0,4|
0,1,7.4|
0,2,7.7|
0,3,1.3|
0,4,9.8|
1,0,0.5|
1,1,3.6|
1,2,3.5|
1,3,4.6|
1,4,5.5|
2,0,0.32|
2,1,7.5|
2,2,4.2|
2,3,3.8|
2,4,9.7|
3,0,3.7|
3,1,0.93|
3,2,6.6|
3,3,7.2|
3,4,2.7|
4,0,8.4|
4,1,1.4|
4,2,2.7|
4,3,2.7|
4,4,3.2|
];
constraint_x6_y6=[
0,0,8.8|
0,1,7.6|
0,2,1.6|
0,3,9.5|
0,4,7.2|
1,0,5.5|
1,1,1.9|
1,2,4.1|
1,3,8.6|
1,4,5.7|
2,0,7.8|
2,1,2.2|
2,2,8.2|
2,3,6|
2,4,3.7|
3,0,3.9|
3,1,8.5|
3,2,5|
3,3,2.3|
3,4,0.65|
4,0,7.8|
4,1,5.5|
4,2,6.3|
4,3,4.9|
4,4,3.3|
];
constraint_x7_y7=[
0,0,8|
0,1,2.3|
0,2,2.8|
0,3,2.9|
0,4,3.9|
1,0,4|
1,1,5.2|
1,2,6.8|
1,3,5.5|
1,4,6.8|
2,0,7.5|
2,1,3.8|
2,2,7.4|
2,3,2|
2,4,4.7|
3,0,1.8|
3,1,1.9|
3,2,0.52|
3,3,0.13|
3,4,3.5|
4,0,4.7|
4,1,3.7|
4,2,4.7|
4,3,9.6|
4,4,7.8|
];
initial_distribution_y1=[0.014,0.17,0.25,0.37,0.2];
initial_distribution_y2=[0.3,0.062,0.26,0.27,0.1];
initial_distribution_y3=[0.29,0.052,0.35,0.13,0.18];
initial_distribution_y4=[0.15,0.15,0.31,0.29,0.11];
initial_distribution_y5=[0.4,0.22,0.066,0.026,0.29];
initial_distribution_y6=[0.19,0.29,0.024,0.11,0.39];
initial_distribution_y7=[0.19,0.31,0.061,0.33,0.11];
transition_y1=[
0.065,0.32,0.25,0.0068,0.36|
0.17,0.22,0.1,0.45,0.065|
0.056,0.068,0.25,0.3,0.32|
0.2,0.28,0.17,0.11,0.24|
0.2,0.13,0.059,0.32,0.29|
];
transition_y2=[
0.19,0.26,0.21,0.2,0.14|
0.14,0.075,0.38,0.23,0.18|
0.31,0.023,0.11,0.3,0.25|
0.16,0.23,0.1,0.43,0.073|
0.26,0.14,0.15,0.23,0.22|
];
transition_y3=[
0.014,0.19,0.15,0.54,0.11|
0.33,0.27,0.3,0.0061,0.091|
0.24,0.22,0.027,0.21,0.31|
0.23,0.38,0.31,0.036,0.047|
0.17,0.27,0.11,0.19,0.26|
];
transition_y4=[
0.047,0.2,0.21,0.24,0.3|
0.36,0.14,0.24,0.15,0.11|
0.17,0.27,0.17,0.064,0.34|
0.32,0.2,0.045,0.038,0.4|
0.0067,0.27,0.36,0.16,0.2|
];
transition_y5=[
0.24,0.16,0.2,0.17,0.23|
0.1,0.14,0.32,0.14,0.31|
0.081,0.3,0.17,0.29,0.16|
0.17,0.094,0.44,0.21,0.085|
0.098,0.15,0.24,0.32,0.19|
];
transition_y6=[
0.037,0.41,0.32,0.22,0.021|
0.048,0.0099,0.31,0.24,0.39|
0.4,0.18,0.26,0.11,0.049|
0.13,0.19,0.23,0.39,0.055|
0.25,0.16,0.24,0.094,0.25|
];
transition_y7=[
0.21,0.1,0.19,0.47,0.025|
0.29,0.14,0.25,0.19,0.14|
0.32,0.25,0.22,0.068,0.14|
0.036,0.35,0.22,0.1,0.29|
0.18,0.12,0.27,0.27,0.15|
];
